c v 6
c e 0 1 59
c e 0 2 49
c e 0 3 42
c e 0 4 36
c e 0 5 31
c e 1 2 26
c e 1 3 22
c e 1 4 15
c e 1 5 10
c e 2 3 6
c e 2 4 1
c e 2 5 4
c e 3 4 2
c e 3 5 16
c e 4 5 7
p cnf 67 149
1 2 3 0
-1 -2 3 0
1 4 5 0
-1 -4 5 0
6 7 8 0
-6 -7 8 0
6 1 9 0
-6 -1 9 0
10 7 11 0
-10 -7 11 0
10 2 12 0
-10 -2 12 0
10 4 13 0
-10 -4 13 0
10 6 14 0
-10 -6 14 0
15 16 17 0
-15 -16 17 0
15 4 18 0
-15 -4 18 0
15 1 19 0
-15 -1 19 0
15 6 20 0
-15 -6 20 0
15 10 21 0
-15 -10 21 0
22 1 23 0
-22 -1 23 0
22 6 24 0
-22 -6 24 0
22 15 25 0
-22 -15 25 0
26 2 27 0
-26 -2 27 0
26 1 28 0
-26 -1 28 0
26 6 29 0
-26 -6 29 0
26 22 30 0
-26 -22 30 0
31 10 32 0
-31 -10 32 0
31 15 33 0
-31 -15 33 0
31 22 34 0
-31 -22 34 0
31 26 35 0
-31 -26 35 0
36 4 37 0
-36 -4 37 0
36 10 38 0
-36 -10 38 0
36 15 39 0
-36 -15 39 0
36 22 40 0
-36 -22 40 0
36 31 41 0
-36 -31 41 0
42 10 43 0
-42 -10 43 0
42 15 44 0
-42 -15 44 0
42 22 45 0
-42 -22 45 0
42 26 46 0
-42 -26 46 0
42 31 47 0
-42 -31 47 0
42 36 48 0
-42 -36 48 0
49 16 50 0
-49 -16 50 0
49 4 51 0
-49 -4 51 0
49 1 52 0
-49 -1 52 0
49 15 53 0
-49 -15 53 0
49 22 54 0
-49 -22 54 0
49 26 55 0
-49 -26 55 0
49 31 56 0
-49 -31 56 0
49 36 57 0
-49 -36 57 0
49 42 58 0
-49 -42 58 0
59 7 60 0
-59 -7 60 0
59 2 61 0
-59 -2 61 0
59 1 62 0
-59 -1 62 0
59 6 63 0
-59 -6 63 0
59 26 64 0
-59 -26 64 0
59 36 65 0
-59 -36 65 0
59 42 66 0
-59 -42 66 0
59 49 67 0
-59 -49 67 0
-4 16 -9 -11 -20 -25 -27 -57 -58 -67 0
1 -4 -3 -8 -34 -35 -41 -43 -44 -58 0
-2 16 -14 -18 -23 -34 -38 -44 -55 -67 0
36 -10 -19 -24 -33 -37 -45 -55 -67 0
59 -10 -19 -24 -35 -40 -44 -51 -67 0
49 -22 -28 -34 -38 -46 -53 -66 0
-6 7 -34 -35 -41 -43 -44 -58 0
-1 4 -12 -17 -29 -41 -66 0
-2 16 -5 -33 -38 -45 -55 0
-16 7 -13 -20 -23 -48 -67 0
-16 7 -9 -32 -40 -44 -55 0
-31 26 -38 -45 -53 -65 0
-10 4 -20 -23 -48 -67 0
-6 1 -25 -30 -48 -58 0
-1 2 -32 -39 -46 -54 0
-1 4 -33 -38 -45 -55 0
-26 2 -37 -43 -50 -60 0
-10 7 -23 -27 -58 -65 0
-36 2 -44 -52 -60 0
-36 22 -46 -53 -67 0
-36 26 -43 -53 -66 0
-36 4 -46 -58 -62 0
59 -36 -47 -58 -67 0
-26 22 -48 -58 -67 0
-4 16 -3 -30 -58 0
-2 16 -5 -21 -41 0
-16 7 -9 -25 -48 0
-42 26 -54 -67 0
-36 16 -54 -61 0
-26 22 -41 -58 0
-15 1 -24 -67 0
-1 2 -30 -58 0
-1 4 -21 -41 0
49 -42 -56 0
-42 36 -67 0
-22 15 -48 0
-22 6 -67 0
-15 10 -41 0
-42 1 -63 0
59 -49 -64 0
-59 49 0
-49 42 0
-49 31 0
-49 36 0
-59 26 0
